certificates/rado_a9_c6_N43.drat
-40 -43 0
d -40 -1 -43 0
10 13 40 0
-4 -43 0
-43 0
40 0
4 0
-1 0
-34 0
-10 0
37 0
31 0
13 0
7 0
0
